n_res = 4;
rc = [ 36, 31, 33, 30 ];
n_tasks = 90;
d = [ 4, 2, 9, 3, 7, 7, 3, 8, 7, 7, 4, 7, 10, 5, 8, 8, 10, 6, 10, 4, 9, 8, 6, 8, 8, 6, 4, 3, 4, 5, 6, 1, 1, 2, 9, 3, 2, 4, 4, 4, 9, 10, 3, 8, 8, 4, 5, 10, 9, 2, 3, 8, 1, 7, 10, 10, 3, 2, 4, 3, 6, 3, 3, 2, 6, 4, 1, 2, 3, 1, 4, 10, 9, 3, 3, 6, 1, 6, 6, 6, 9, 9, 10, 6, 3, 6, 5, 3, 1, 6 ];
rr = [| 4, 1, 6, 4, 0, 7, 7, 3, 0, 9, 10, 10, 5, 5, 4, 4, 4, 6, 2, 3, 10, 3, 6, 4, 1, 0, 0, 2, 10, 6, 1, 1, 10, 10, 5, 10, 5, 1, 5, 5, 3, 5, 10, 10, 4, 0, 9, 3, 0, 2, 7, 5, 3, 7, 3, 4, 6, 9, 2, 8, 4, 5, 0, 9, 0, 4, 0, 9, 2, 3, 0, 8, 4, 5, 2, 8, 0, 8, 0, 0, 0, 8, 3, 0, 4, 3, 1, 5, 10, 5
      | 0, 8, 6, 9, 1, 7, 9, 2, 0, 4, 0, 6, 5, 8, 0, 9, 0, 0, 0, 0, 7, 3, 0, 6, 5, 0, 9, 4, 2, 8, 1, 0, 2, 0, 7, 0, 6, 2, 9, 0, 3, 7, 0, 1, 0, 7, 0, 6, 0, 5, 10, 0, 0, 4, 2, 10, 8, 4, 0, 1, 1, 2, 6, 6, 4, 8, 6, 0, 6, 1, 2, 2, 2, 7, 10, 8, 0, 0, 1, 10, 4, 3, 3, 0, 0, 1, 7, 3, 1, 2
      | 10, 10, 3, 0, 0, 10, 0, 0, 8, 0, 3, 5, 5, 6, 4, 8, 6, 2, 0, 4, 7, 3, 4, 3, 2, 9, 0, 2, 0, 4, 10, 6, 0, 9, 5, 9, 5, 3, 4, 1, 0, 0, 8, 3, 4, 9, 3, 10, 7, 5, 8, 0, 6, 5, 9, 0, 8, 0, 0, 9, 0, 7, 3, 9, 1, 9, 0, 5, 6, 0, 2, 1, 0, 0, 2, 3, 2, 0, 0, 1, 0, 5, 7, 2, 2, 4, 7, 6, 5, 7
      | 0, 2, 2, 8, 5, 0, 1, 9, 6, 4, 1, 4, 3, 3, 2, 2, 0, 10, 1, 4, 0, 2, 0, 5, 9, 8, 6, 6, 7, 0, 3, 9, 9, 0, 0, 4, 4, 10, 4, 0, 5, 7, 1, 9, 0, 3, 0, 0, 3, 0, 9, 1, 9, 0, 8, 2, 4, 9, 4, 0, 10, 0, 6, 10, 7, 0, 0, 7, 0, 0, 0, 0, 10, 4, 4, 5, 8, 1, 0, 7, 3, 2, 0, 6, 5, 6, 3, 5, 8, 0 |];
suc = [ { 39 },
       { 7, 14, 25 },
       { 4, 5, 9 },
       { 6, 11, 20 },
       { 18, 32 },
       { 8, 12, 19 },
       { 78 },
       { 29 },
       { 10, 16, 40 },
       { 13, 27 },
       { 24, 31, 34 },
       { 15, 17, 24 },
       { 21, 22 },
       { 20, 32 },
       { 48, 64, 74 },
       { 52 },
       { 23 },
       { 42, 44 },
       { 51 },
       { 50, 77 },
       { 26, 28, 72 },
       { 55 },
       { 30, 48 },
       { 33, 43, 47 },
       { 41 },
       { 88 },
       { 39 },
       { 37 },
       { 38, 46, 74 },
       { 43 },
       { 49, 69, 72 },
       { 75 },
       { 82 },
       { 35, 36 },
       { 42 },
       { 68, 82, 86 },
       { 54, 58, 66 },
       { 62 },
       { 45 },
       { 44, 51 },
       { 56 },
       { 60, 80 },
       { 90 },
       { 63 },
       { 56 },
       { 83 },
       { 67 },
       { 57, 62, 71 },
       { 59, 75 },
       { 65 },
       { 53 },
       { 55 },
       { 78 },
       { 70 },
       { 71 },
       { 73, 76 },
       { 70 },
       { 84 },
       { 61 },
       { 68 },
       { 79 },
       { 81 },
       { 71 },
       { 89 },
       { 72 },
       { 78 },
       { 90 },
       { 75 },
       { 74, 76 },
       { 81 },
       { 81, 85, 86 },
       { 79 },
       { 84 },
       { 79 },
       { 87 },
       { 77 },
       { 83 },
       { 87 },
       { 88 },
       { 82 },
       { 89 },
       { 87 },
       { 84 },
       { 85 },
       { 90 },
       { 88 },
       { 89 },
       {  },
       {  },
       {  } ];
